InboundTrucks  = 120;
OutboundTrucks = 60;
InboundDoors   = 10;
OutboundDoors  = 10;
ReleaseTime    = [100,86,10,114,111,72,73,68,62,61,16,112,102,82,40,82,101,82,108,104,12,82,107,24,19,33,73,6,89,99,32,50,112,100,29,106,80,51,9,34,3,25,82,111,64,26,23,111,86,42,21,113,11,70,113,118,76,59,114,89,119,95,47,16,84,83,63,59,1,95,7,31,14,92,107,83,29,51,101,114,35,108,64,45,5,116,98,21,58,104,13,54,116,78,70,101,21,26,29,13,101,7,26,2,66,80,36,18,31,60,75,43,110,59,114,12,103,4,52,67];
UnloadTime     = [15,34,16,13,27,34,43,29,41,13,39,12,13,39,16,16,26,15,16,45,41,30,19,37,35,20,38,44,12,42,29,43,16,29,38,13,18,41,27,24,32,12,41,43,10,34,36,38,42,32,18,32,13,23,38,28,32,25,10,44,32,41,12,32,27,27,35,16,31,36,12,34,35,27,35,30,21,13,25,11,45,35,28,42,35,30,20,31,24,16,44,27,21,30,10,34,23,18,27,40,21,31,26,35,18,13,37,37,20,13,35,27,37,17,14,19,34,45,26,13];
LoadTime       = [11,28,8,27,28,6,16,19,9,17,10,8,9,12,21,5,25,8,6,28,22,18,13,21,16,29,18,20,30,7,12,29,12,13,17,21,14,27,19,20,9,26,19,10,29,5,8,14,18,26,21,5,21,22,10,20,7,14,21,24];
TransferTime   = [| 0,45,0,0,0,0,28,0,0,39,0,0,50,0,0,0,0,0,23,25,0,10,28,0,28,0,0,0,0,0,0,0,27,0,0,0,0,0,19,0,0,0,0,0,0,0,25,0,0,0,14,0,0,47,0,0,16,0,0,0 | 0,0,0,45,0,44,0,47,12,0,22,0,20,0,0,0,26,0,0,0,43,0,0,0,0,40,0,0,0,0,43,0,0,10,0,0,36,0,0,0,42,12,27,0,38,0,40,0,0,0,13,0,0,0,20,0,0,0,0,0 | 0,0,0,0,37,0,10,13,0,0,0,0,23,11,0,18,28,0,46,0,0,0,16,0,0,0,0,0,0,0,0,0,0,15,33,0,0,19,25,0,38,43,0,0,0,14,34,0,0,0,0,0,0,0,18,0,0,0,32,50 | 0,0,0,0,34,0,0,0,0,0,0,0,15,0,35,0,24,0,0,0,0,0,0,0,45,0,46,0,0,0,0,0,0,0,0,33,39,0,0,38,0,0,0,0,0,0,50,0,49,0,0,0,28,0,37,0,0,46,0,0 | 0,19,0,0,0,0,11,0,0,0,24,0,0,0,0,0,0,0,0,30,0,0,26,11,0,0,0,0,0,0,0,26,0,46,29,41,44,40,0,0,0,41,0,40,0,0,0,38,16,0,0,0,0,0,43,24,0,0,0,46 | 0,35,0,0,0,0,0,18,0,0,0,0,0,12,0,0,0,0,0,0,0,0,10,0,0,19,0,50,0,0,0,0,0,0,0,0,0,50,0,43,0,0,0,0,0,0,23,0,0,0,0,0,0,0,41,27,20,0,0,0 | 0,31,0,0,0,0,0,0,0,0,0,14,0,0,0,0,0,0,27,0,47,0,0,0,26,0,0,27,0,0,0,0,30,28,0,0,0,47,0,0,42,0,0,48,0,0,22,0,0,0,0,45,0,30,42,0,0,0,21,25 | 0,0,0,0,11,0,0,0,19,0,0,0,0,0,30,21,0,38,0,0,0,0,0,20,0,0,0,0,0,0,40,42,0,0,0,22,18,0,43,0,0,0,0,0,34,0,0,17,0,0,0,0,25,10,0,0,10,32,0,0 | 44,42,0,0,0,15,43,0,0,0,0,0,0,0,48,0,0,0,0,0,0,36,40,0,0,0,0,0,0,0,26,11,0,17,0,22,0,27,0,0,0,0,0,0,0,20,0,0,0,0,0,0,0,0,0,24,0,0,33,0 | 0,0,0,42,0,0,0,0,0,0,0,33,0,0,0,0,0,0,0,0,0,0,0,0,49,0,0,0,0,0,0,31,0,0,0,0,0,0,0,50,0,23,35,0,0,36,0,0,0,0,0,29,0,39,0,0,0,10,11,0 | 0,18,0,45,0,46,49,0,22,0,0,29,33,0,0,41,0,0,0,34,0,20,18,41,0,0,34,0,31,0,0,0,0,0,0,0,35,0,0,14,0,0,0,0,0,0,0,0,0,0,0,0,0,0,19,0,0,23,24,0 | 0,0,0,0,0,50,0,0,30,25,0,0,0,0,20,49,0,0,0,22,0,0,0,0,0,49,0,47,38,0,0,0,0,16,0,34,0,0,49,0,0,0,22,17,0,0,44,0,11,16,0,0,43,0,0,0,10,25,0,0 | 49,0,0,0,0,44,42,36,16,37,0,0,0,0,13,28,0,0,0,23,13,21,0,40,21,0,16,0,0,0,0,0,0,0,0,15,0,26,0,0,0,26,0,0,0,28,16,20,0,0,35,0,0,0,0,25,46,26,0,0 | 0,23,0,38,0,0,0,49,43,33,0,0,0,12,0,0,0,0,0,0,0,0,0,0,18,0,26,0,0,0,0,0,0,0,0,0,0,0,41,0,0,0,0,0,0,0,0,0,0,0,29,0,0,0,0,0,15,0,0,0 | 0,0,0,14,0,0,0,0,31,0,15,0,0,46,0,0,43,0,0,39,11,44,0,0,0,0,15,0,0,35,0,34,0,27,0,12,0,0,0,12,0,0,32,0,0,0,0,0,0,21,0,0,39,0,16,0,19,0,0,0 | 22,0,35,0,22,38,0,0,36,0,0,0,0,0,0,30,0,0,38,0,0,0,0,0,0,0,0,49,17,0,0,0,31,0,0,0,22,0,0,0,0,0,0,0,0,0,10,17,0,0,0,0,0,25,35,0,0,50,45,0 | 0,0,0,30,0,0,0,0,0,0,0,0,0,0,18,27,0,0,0,36,0,0,0,0,0,33,0,0,0,0,0,0,0,0,0,31,0,26,0,43,0,29,0,12,16,0,0,0,50,0,0,0,0,16,36,0,44,0,0,0 | 0,21,0,0,0,0,0,0,0,11,37,10,0,34,0,0,0,0,0,0,0,0,0,0,0,0,0,0,0,0,0,28,0,0,22,14,20,0,14,26,0,0,0,23,0,0,0,0,41,0,0,0,0,0,0,12,0,0,0,0 | 35,0,0,0,33,0,0,0,0,0,0,0,42,0,18,0,0,34,0,0,0,0,0,0,0,40,27,0,0,0,0,0,0,29,22,0,0,0,0,0,32,0,0,0,10,0,0,0,0,0,0,50,0,0,24,0,0,0,43,0 | 0,0,0,36,0,0,0,0,0,0,0,0,0,0,0,0,0,0,0,39,0,0,0,0,18,0,0,0,0,0,0,0,0,0,0,21,0,0,14,0,0,43,0,0,0,0,14,18,0,0,0,0,0,44,0,0,0,0,0,0 | 37,0,0,28,0,0,29,0,0,0,0,24,22,39,0,0,0,0,0,0,0,0,38,0,0,0,0,0,0,0,0,31,0,14,0,0,0,0,39,0,0,0,0,14,0,0,38,20,0,0,0,0,47,0,0,0,0,0,29,0 | 0,0,0,0,0,0,0,0,0,0,41,0,0,0,0,0,0,11,0,0,49,0,0,33,0,0,0,0,0,0,50,39,0,0,0,0,0,0,0,0,0,0,0,0,0,0,0,36,0,39,0,0,0,0,15,0,0,0,0,26 | 0,16,0,0,0,0,0,38,0,0,16,0,0,0,0,0,0,21,0,0,0,0,0,0,0,0,0,0,0,0,0,0,0,25,18,0,0,0,0,0,17,0,0,0,0,0,48,0,0,26,0,0,0,0,0,0,0,0,0,0 | 0,0,16,12,0,0,0,19,49,26,0,0,0,50,0,0,0,28,28,0,0,11,0,42,0,11,0,24,27,16,49,0,0,0,0,0,0,0,0,22,0,26,0,0,0,22,0,0,0,0,30,0,0,0,0,0,41,25,42,19 | 0,0,0,45,34,0,0,0,0,0,0,0,44,0,39,0,0,0,18,0,11,0,0,14,0,12,0,0,0,41,20,0,0,49,30,0,0,32,0,0,0,0,46,0,0,0,0,0,0,28,0,47,47,11,31,14,50,0,10,0 | 11,0,0,25,0,19,50,0,13,0,21,42,0,0,50,0,0,0,0,0,46,0,0,0,0,0,46,0,32,0,0,0,24,44,0,0,0,17,13,36,0,0,0,21,0,0,0,17,0,0,0,29,0,0,12,0,0,0,36,0 | 0,0,41,0,11,23,0,0,0,41,42,0,0,0,11,0,24,0,0,0,37,0,0,0,0,48,25,0,0,0,0,28,0,0,0,0,0,0,0,0,0,0,0,47,0,0,26,29,50,0,0,0,0,0,0,0,0,22,0,12 | 0,0,0,0,30,0,0,0,34,49,48,46,0,0,0,0,0,0,48,0,0,0,30,28,0,0,0,0,0,0,0,0,0,0,38,30,26,0,0,0,0,0,31,0,0,0,0,0,0,19,0,0,0,25,0,27,0,0,47,0 | 32,0,0,45,0,23,0,0,0,0,0,0,0,0,0,0,0,0,0,0,0,0,0,0,0,0,0,0,0,0,0,0,0,0,0,0,13,0,0,0,0,0,0,0,0,0,15,0,0,0,42,0,26,21,0,0,0,12,0,48 | 0,0,0,27,0,0,0,0,0,47,0,0,0,0,15,0,0,0,0,0,18,26,0,0,0,12,0,23,39,0,23,0,0,16,26,0,0,11,0,0,0,0,49,0,0,0,0,0,0,0,0,0,0,0,0,0,0,0,43,0 | 30,0,21,0,0,20,0,0,0,0,0,0,35,0,0,0,0,0,0,42,0,0,0,0,0,0,0,0,0,50,35,0,0,0,18,16,22,35,0,0,0,0,0,22,0,0,0,0,0,0,12,0,35,0,0,0,0,11,0,0 | 0,14,43,0,0,0,0,0,35,33,11,0,0,0,35,0,0,0,0,0,0,0,0,0,0,28,0,0,14,0,0,0,0,0,0,0,0,0,0,19,0,0,0,0,0,0,25,0,0,41,28,0,33,0,0,0,0,0,0,0 | 0,0,0,0,18,0,0,0,0,0,0,0,0,0,0,0,0,0,0,0,28,49,0,29,0,41,0,0,0,0,0,0,0,0,0,0,0,31,0,0,0,0,0,14,0,0,24,0,0,19,48,0,0,21,0,0,18,0,0,0 | 0,19,0,0,0,0,0,0,37,0,0,14,38,34,0,0,0,0,33,19,0,0,13,0,0,0,12,25,0,0,0,0,0,19,35,0,0,0,49,0,0,14,26,0,31,0,21,0,0,0,0,0,0,0,0,0,27,0,0,0 | 0,0,0,0,40,38,0,49,16,50,0,0,0,0,14,31,0,0,0,0,0,0,0,11,0,0,0,0,0,0,0,0,0,0,0,48,0,0,0,15,0,0,33,0,0,0,38,0,0,0,0,0,0,0,28,0,0,0,0,0 | 0,31,0,0,0,0,0,0,0,41,0,0,0,34,50,0,0,0,23,0,45,0,0,44,0,48,0,0,0,0,0,21,17,0,0,0,0,0,0,0,0,0,0,0,0,0,0,0,29,0,27,30,0,18,0,0,0,23,0,17 | 0,0,0,15,0,0,0,0,0,0,0,0,15,28,0,0,0,0,0,0,0,0,0,0,0,23,0,0,0,50,0,0,0,0,0,0,13,48,0,0,0,0,0,26,0,0,0,0,10,0,0,0,0,0,0,0,0,13,0,0 | 0,0,0,0,0,25,25,0,0,0,15,0,39,0,0,38,0,0,0,0,0,47,0,0,0,0,0,0,0,0,0,0,0,10,42,15,0,0,0,0,0,0,0,0,0,0,0,0,0,0,0,0,0,14,0,0,0,0,0,23 | 16,0,17,0,0,0,0,0,46,42,11,32,0,0,0,35,0,0,0,24,45,0,48,0,0,0,0,17,0,0,10,0,15,0,0,0,0,42,0,43,0,0,0,24,0,0,0,0,0,0,0,40,0,0,12,40,0,0,0,0 | 0,0,26,37,0,0,33,0,0,0,0,29,0,46,0,36,0,15,0,0,0,0,0,0,0,47,0,0,0,0,0,0,0,0,0,15,0,50,0,0,38,0,0,0,0,0,0,0,0,0,0,50,0,45,0,32,0,0,10,0 | 0,0,0,0,0,0,28,0,0,38,16,23,0,0,30,12,49,0,0,0,0,0,0,0,0,0,0,0,38,0,0,0,0,14,0,0,0,0,0,0,0,0,0,0,0,0,21,0,0,25,41,35,0,0,23,0,43,0,0,0 | 40,0,47,0,0,0,0,0,0,0,23,0,0,0,0,0,0,0,46,34,35,42,0,38,0,0,10,0,36,0,47,0,16,14,0,0,0,0,21,0,17,0,0,0,33,15,0,0,21,0,0,0,43,0,0,0,42,0,0,0 | 15,0,0,34,49,10,0,36,0,0,0,0,0,0,0,0,31,0,0,0,0,0,0,0,48,0,13,0,0,0,0,0,0,0,0,0,0,0,24,25,0,0,0,0,0,0,22,0,0,0,41,0,0,0,32,0,16,42,0,0 | 0,0,16,0,12,0,0,0,0,0,0,0,30,0,0,0,0,0,0,0,0,0,0,36,0,0,0,0,0,0,26,0,0,0,0,0,13,0,0,0,35,0,15,0,0,0,0,0,0,0,0,0,0,0,15,0,0,24,15,0 | 0,12,0,0,0,0,47,0,0,0,0,0,0,0,0,47,0,0,0,0,0,22,0,0,0,0,0,0,0,46,0,0,0,0,12,33,0,10,0,0,35,14,30,0,43,0,0,0,0,32,0,0,0,34,0,40,22,0,0,46 | 0,0,19,0,12,24,0,0,0,0,0,0,38,0,0,0,23,0,0,0,0,0,0,0,0,0,0,0,42,20,0,0,19,0,26,0,35,0,22,27,0,0,0,0,0,0,0,0,0,19,0,0,0,50,0,0,0,0,0,0 | 18,0,21,0,0,0,0,0,0,0,36,0,0,0,0,0,0,0,0,0,0,50,50,0,0,20,0,0,27,0,0,12,0,0,0,0,0,0,37,11,19,23,0,0,0,0,0,0,0,0,23,0,0,0,46,0,0,33,0,0 | 0,34,0,18,32,0,0,0,0,10,0,27,0,0,0,0,0,0,0,0,41,21,0,12,0,0,0,0,47,0,0,0,38,0,0,40,0,34,0,15,0,0,0,0,0,0,0,0,0,24,0,0,40,0,0,0,41,0,31,0 | 0,15,40,0,0,0,0,0,0,0,0,0,0,0,0,0,0,15,0,0,0,0,0,0,0,0,0,0,23,0,0,25,0,0,0,0,0,0,0,0,0,25,0,0,31,33,0,0,0,0,10,0,0,0,0,30,0,23,0,27 | 0,0,50,0,0,0,0,0,0,0,43,0,0,0,0,21,0,0,0,0,30,0,0,50,11,50,12,26,0,39,0,25,0,0,0,0,0,0,0,38,0,0,0,0,24,0,0,0,18,0,0,50,0,0,0,0,41,0,0,0 | 46,0,0,0,0,0,0,14,0,17,0,0,0,24,46,0,46,0,16,0,0,24,0,0,19,0,0,0,0,0,0,0,0,0,0,0,0,0,38,0,0,0,48,0,0,0,10,0,0,0,11,0,0,0,0,0,0,37,0,0 | 0,0,0,0,0,0,48,0,0,21,0,0,0,0,0,0,0,0,0,0,0,0,24,0,0,0,32,0,46,0,0,18,0,0,0,0,0,0,0,31,0,0,0,0,31,0,0,0,0,0,26,26,0,0,0,0,0,0,0,0 | 0,44,14,41,0,24,0,0,0,41,37,0,0,18,0,0,0,0,0,18,0,0,0,44,0,0,0,0,0,0,0,0,0,0,0,0,0,0,45,0,0,0,0,0,0,0,0,0,37,0,0,0,0,0,40,14,0,46,0,0 | 0,39,0,0,0,0,0,0,0,0,0,0,0,0,0,0,0,0,0,0,0,36,0,38,26,0,0,0,22,26,43,0,0,0,0,0,0,0,0,37,0,0,0,48,0,0,22,0,0,0,0,0,19,0,0,0,0,0,17,14 | 29,42,0,0,0,0,0,46,0,0,32,47,0,0,0,0,0,0,0,0,0,0,40,14,38,12,0,0,0,22,0,0,0,0,0,0,41,0,31,0,0,0,0,0,0,0,0,0,0,0,0,11,0,0,0,0,0,46,44,10 | 0,39,0,0,0,0,0,25,0,0,0,0,0,0,0,29,0,0,0,0,0,36,45,32,0,45,0,0,0,0,0,0,0,19,42,32,0,48,0,0,0,0,0,0,0,46,0,0,0,0,0,0,0,44,26,0,22,0,0,0 | 0,0,0,10,0,25,0,0,0,0,0,0,0,0,0,0,0,0,31,0,30,0,0,0,0,0,0,34,0,0,0,0,0,0,0,0,0,33,0,0,0,0,0,0,0,14,0,38,50,0,0,0,38,0,0,0,0,11,0,0 | 0,0,0,0,27,0,0,0,23,0,0,0,22,16,24,0,0,0,0,18,0,0,0,0,0,0,0,30,0,0,0,0,0,0,0,0,40,0,0,45,0,0,0,0,19,27,0,0,0,0,0,21,0,34,46,0,0,14,0,0 | 0,0,0,0,13,0,0,0,0,14,0,15,0,0,0,0,0,46,19,0,0,27,0,0,0,0,0,0,0,0,0,0,37,47,0,0,0,0,0,0,0,43,0,40,0,21,0,38,31,0,0,0,0,0,15,16,0,49,0,0 | 0,0,0,0,0,0,0,0,14,0,0,0,39,0,0,0,0,0,0,0,0,0,48,42,13,0,10,0,0,0,0,0,0,0,0,0,27,0,0,0,13,47,0,0,0,0,0,0,0,0,0,17,0,0,0,0,0,0,0,0 | 0,31,0,28,0,0,0,40,0,0,0,0,16,0,32,0,36,0,0,0,0,0,0,0,48,40,0,40,0,31,0,38,0,0,0,24,0,0,0,0,0,0,0,0,0,29,0,0,0,0,0,0,0,0,0,0,0,0,0,49 | 0,0,47,0,0,0,27,0,0,0,0,28,0,0,0,18,0,0,0,38,0,47,0,0,35,24,0,0,0,0,0,0,0,0,0,0,0,0,42,0,19,31,0,0,0,0,0,10,45,0,0,0,0,27,0,0,0,0,0,0 | 0,13,0,0,0,0,0,0,0,0,33,14,22,0,47,0,25,0,0,0,34,0,0,0,42,0,0,27,0,28,0,24,49,0,0,26,0,0,36,0,0,0,0,0,42,0,0,0,0,37,0,0,0,0,0,29,0,44,0,19 | 41,0,40,49,0,0,0,0,32,0,0,34,17,0,14,0,0,0,0,0,21,30,0,0,0,0,0,0,0,0,19,19,0,0,0,0,0,41,0,0,0,0,0,0,0,0,0,27,0,0,0,30,0,0,0,0,0,0,0,0 | 16,50,0,0,0,32,44,0,0,37,0,0,0,0,0,0,0,0,0,14,0,0,0,0,22,0,15,0,0,0,0,0,0,0,0,0,16,0,0,0,0,0,0,0,0,0,0,0,0,0,0,0,0,29,0,0,15,0,0,0 | 43,0,0,0,0,0,0,0,0,0,0,0,0,0,0,50,25,40,0,22,0,21,10,0,30,0,48,0,0,0,26,36,0,0,0,48,38,0,39,0,0,0,0,0,0,39,0,0,0,0,0,49,0,24,38,38,0,0,0,0 | 0,0,20,25,23,0,0,0,30,0,0,0,0,0,29,0,0,0,0,39,22,49,0,27,0,20,0,0,0,0,0,48,0,0,0,0,18,38,41,0,0,0,0,0,0,0,0,0,0,35,30,0,0,0,38,0,0,24,0,48 | 33,0,0,0,0,31,11,0,0,49,23,0,42,0,0,0,15,0,0,0,17,0,0,0,21,47,40,0,0,0,0,0,0,0,0,39,0,0,0,0,0,0,0,0,48,0,0,0,0,0,44,14,0,0,29,0,0,0,0,33 | 0,0,0,35,0,0,0,43,0,37,0,0,0,0,0,30,0,0,0,0,0,17,16,0,0,30,38,0,27,0,17,0,0,0,0,40,0,0,0,0,0,0,0,0,0,0,0,0,0,0,14,30,0,0,47,30,0,0,0,0 | 0,0,0,0,0,0,0,0,45,0,0,0,44,0,0,0,0,0,0,21,15,21,0,0,24,0,0,49,0,0,28,0,0,0,0,0,0,0,0,32,0,0,0,0,21,0,0,38,42,0,21,0,0,36,0,0,0,13,10,0 | 0,0,0,41,0,15,35,0,0,0,0,0,0,0,0,0,0,0,0,0,0,0,10,0,0,0,20,0,0,18,0,0,0,27,0,41,0,45,0,32,14,0,0,0,10,0,0,0,10,0,0,0,0,0,0,0,0,0,0,27 | 10,0,0,0,44,0,0,0,0,0,0,10,0,39,0,0,0,0,0,35,0,0,0,0,0,0,0,0,0,20,18,0,42,0,0,0,45,0,0,0,0,0,0,0,0,0,0,0,0,0,0,0,38,0,49,0,0,41,0,0 | 0,0,21,0,16,44,0,0,32,0,0,0,34,0,0,0,39,0,0,0,0,0,31,18,0,24,0,0,0,0,0,0,0,0,0,0,10,0,0,0,0,0,0,0,30,38,32,0,44,0,0,0,32,0,31,0,0,0,0,0 | 0,0,0,44,0,0,38,0,24,0,15,0,0,0,0,40,0,0,11,0,0,0,0,0,0,11,0,0,0,15,49,0,0,0,0,45,0,47,0,0,21,0,36,21,0,0,17,15,0,40,0,0,11,0,0,0,28,0,0,0 | 18,0,0,44,28,0,0,0,0,0,0,0,0,0,0,0,0,35,0,34,0,0,0,0,0,0,0,44,0,0,38,0,0,26,0,0,0,37,0,0,0,36,0,0,0,0,0,38,0,0,0,0,0,0,0,0,0,0,0,0 | 0,31,0,0,0,0,42,0,0,0,0,0,0,0,0,0,0,0,19,0,0,0,0,0,0,12,0,0,0,0,0,0,0,0,0,0,0,0,14,44,0,0,0,0,0,0,0,0,0,0,0,0,48,0,0,29,13,0,0,43 | 33,0,0,0,0,0,0,0,0,0,0,0,42,32,0,0,0,0,0,0,0,0,11,0,24,0,0,0,0,21,0,0,0,0,0,0,0,0,0,35,35,0,31,16,0,26,0,0,33,0,28,0,0,0,0,0,0,21,20,48 | 0,0,0,0,0,0,0,28,0,0,0,0,0,0,0,0,18,49,0,0,0,0,0,34,12,0,0,0,0,0,0,0,0,0,0,0,0,0,0,0,39,0,0,0,0,0,0,32,0,0,0,47,0,0,14,47,0,29,0,0 | 0,0,0,23,44,0,0,0,0,0,0,0,34,47,0,24,39,0,48,0,0,0,10,0,0,0,49,47,0,0,37,0,0,0,0,0,0,34,0,0,0,11,0,0,34,0,0,0,0,0,23,0,0,0,0,0,0,11,16,0 | 0,28,0,0,44,0,0,0,0,0,22,0,0,0,0,14,0,0,26,0,43,0,20,0,12,0,0,37,18,0,0,0,0,48,10,0,0,46,0,0,14,0,0,0,0,30,0,0,0,0,31,0,0,0,0,15,0,0,0,0 | 19,39,0,0,0,0,0,0,21,0,0,0,0,0,0,0,0,28,0,0,0,0,0,0,0,0,0,0,0,0,16,49,0,23,0,0,0,0,0,0,0,0,0,0,0,0,0,0,0,0,0,23,0,0,0,0,0,0,0,0 | 0,0,0,28,13,0,0,18,0,0,0,46,0,0,0,0,0,0,0,29,0,0,0,0,0,37,0,0,0,0,0,0,0,10,21,0,30,14,0,0,0,36,0,14,24,0,0,0,35,0,19,0,0,15,37,0,0,0,0,0 | 36,43,22,0,0,0,0,0,13,0,0,30,0,46,0,0,0,0,0,0,0,0,0,0,0,0,0,31,0,0,0,0,0,0,21,38,0,0,20,23,0,50,0,0,0,19,0,0,0,0,0,0,0,0,39,0,0,0,0,0 | 0,0,0,0,0,43,0,0,0,0,0,0,21,30,0,30,0,0,0,0,0,0,0,0,0,25,16,30,46,0,0,0,0,0,0,0,46,0,0,0,48,27,0,0,0,0,0,0,0,32,27,25,0,0,0,0,0,0,0,0 | 0,0,42,0,0,41,0,0,0,0,0,0,14,0,40,0,0,0,0,0,0,0,0,0,0,0,17,0,20,0,0,0,0,50,0,0,0,36,0,0,0,0,0,0,0,0,11,0,0,0,47,0,24,0,0,0,0,0,33,0 | 0,0,0,0,0,0,27,0,0,0,0,22,0,0,47,0,0,0,26,0,0,28,0,0,0,0,47,0,46,38,0,25,0,0,17,0,48,0,0,13,0,0,0,0,42,40,0,24,0,0,25,0,0,0,0,15,0,0,0,0 | 37,0,0,0,21,0,0,0,0,0,0,0,0,0,10,0,0,19,0,44,0,0,0,36,0,0,0,48,0,0,0,0,25,0,35,0,35,0,0,28,0,47,28,0,0,0,0,0,0,43,0,0,0,15,0,0,0,0,0,0 | 0,0,0,0,0,0,14,25,0,0,0,10,0,0,0,0,0,0,0,0,0,0,0,0,0,23,0,0,0,0,0,27,0,0,0,0,0,41,0,0,0,0,46,14,0,50,0,0,0,0,0,47,0,0,0,0,0,0,0,0 | 0,42,0,0,0,0,0,0,0,0,0,0,29,12,31,0,0,0,0,0,0,0,27,0,11,19,0,0,19,28,0,0,0,26,0,0,0,0,0,0,40,0,17,0,31,0,0,0,0,0,0,0,0,0,0,48,0,0,0,0 | 0,0,0,45,0,33,0,0,0,0,27,24,0,0,0,11,25,0,0,0,0,0,0,0,0,0,0,0,0,0,0,0,0,0,0,18,0,0,0,47,0,0,0,0,0,0,15,0,0,0,32,0,17,20,14,20,0,0,0,0 | 0,18,0,43,0,0,0,0,0,14,45,0,23,0,0,0,48,0,47,40,16,0,0,0,0,0,12,0,0,0,0,0,42,0,17,44,38,43,0,42,0,0,0,0,0,0,44,26,0,31,0,45,0,34,0,24,0,0,0,0 | 0,0,0,36,0,10,0,0,0,0,0,29,0,0,0,0,35,0,0,0,12,47,0,0,46,0,0,0,0,0,0,0,0,0,0,0,0,37,12,0,39,0,0,0,0,0,0,44,0,0,0,32,0,13,0,0,0,46,40,0 | 0,0,0,0,0,0,33,42,40,0,0,0,13,0,0,30,0,0,0,0,0,39,0,18,0,0,18,0,0,0,0,31,0,30,0,0,0,0,0,35,0,0,37,0,0,0,0,0,38,0,0,0,0,0,0,0,0,0,0,0 | 0,0,0,0,23,0,0,0,0,0,0,0,0,0,0,0,0,0,0,0,0,34,0,0,0,16,0,14,49,0,26,0,0,0,0,0,15,0,0,48,0,0,18,0,0,50,0,0,0,0,0,23,45,0,14,50,0,49,23,26 | 0,0,41,0,0,0,0,0,0,0,32,0,0,0,46,0,0,0,0,0,0,0,0,45,50,0,0,0,0,33,30,0,0,0,0,0,0,0,0,0,0,20,13,0,0,0,0,0,0,0,0,0,28,0,0,24,15,0,0,0 | 0,0,0,0,0,0,20,0,0,31,25,30,0,38,0,0,47,0,37,0,0,0,0,17,0,0,12,0,0,0,0,50,0,0,36,0,0,0,0,0,0,0,44,0,0,0,0,0,0,0,0,0,23,0,36,0,0,0,0,15 | 17,0,0,0,16,41,0,0,46,0,39,0,0,0,12,20,37,0,0,0,0,0,0,49,0,0,30,38,11,0,0,0,0,0,0,0,15,0,0,0,0,0,0,32,0,0,0,0,0,0,0,0,0,19,0,0,47,0,0,0 | 0,0,48,0,28,33,0,0,0,0,28,43,19,0,0,0,0,0,0,29,0,0,0,35,0,0,47,0,0,0,0,0,16,0,37,43,0,37,0,0,0,0,0,0,0,0,25,0,0,0,27,0,0,0,0,33,0,14,42,0 | 24,36,0,0,0,0,0,0,0,0,0,36,0,0,0,0,0,0,0,0,0,0,0,0,0,0,0,11,0,24,0,36,0,18,0,0,0,45,0,0,17,0,0,0,0,0,0,0,0,49,49,0,0,0,0,0,0,0,0,24 | 0,0,0,0,0,0,0,0,0,0,25,10,0,0,0,41,0,0,0,0,47,16,34,0,34,0,0,0,0,0,0,30,45,0,27,0,19,0,45,0,0,0,42,46,0,13,0,0,0,31,49,17,0,0,0,0,0,0,0,0 | 0,0,13,0,0,0,0,0,0,30,0,0,47,0,0,0,44,21,0,0,43,0,0,0,25,0,0,0,21,0,0,31,0,0,15,0,42,0,17,0,0,0,0,0,0,0,0,0,0,20,0,10,0,0,0,0,0,0,0,40 | 0,0,0,0,0,0,0,0,0,50,0,0,0,48,0,29,46,0,0,0,0,0,23,0,38,0,34,0,0,0,0,0,0,0,0,0,0,0,0,0,30,0,0,0,0,0,0,0,0,22,0,11,0,17,0,0,20,0,21,0 | 0,0,0,0,0,0,43,0,0,0,15,13,0,0,0,0,19,0,0,0,0,46,0,0,0,43,26,0,48,42,0,0,0,0,0,0,0,12,0,0,0,23,0,0,0,0,29,0,0,0,0,0,0,0,0,28,0,0,0,0 | 0,0,0,0,0,10,43,0,0,0,0,0,0,0,0,33,50,0,33,0,0,0,0,0,0,16,0,0,17,0,0,0,0,0,0,31,0,0,0,0,0,44,47,0,43,0,0,47,0,27,0,0,18,0,0,0,27,0,50,0 | 37,0,0,0,46,0,21,0,0,0,32,0,0,0,0,0,0,0,13,0,0,0,0,0,0,0,0,0,0,0,34,0,0,0,33,25,13,22,0,0,0,0,0,0,0,0,21,0,0,0,0,42,0,0,0,0,29,0,50,0 | 43,0,0,19,0,0,0,16,0,0,0,0,0,17,0,31,0,0,0,0,0,0,0,20,0,0,0,48,0,16,0,0,0,0,33,0,21,0,0,0,0,0,0,0,0,50,0,43,0,33,0,42,0,27,0,43,0,43,0,0 | 0,0,0,0,0,40,0,0,44,0,0,0,0,0,0,23,0,0,0,0,0,0,0,0,0,0,0,14,0,0,41,0,12,0,13,0,29,0,28,40,0,0,27,0,0,0,13,0,0,0,40,0,0,0,24,0,0,0,0,0 | 0,0,0,0,0,0,0,0,0,0,0,0,0,0,0,0,28,0,0,0,0,0,0,0,0,33,24,0,0,0,0,0,0,0,11,0,0,0,0,0,0,0,0,45,0,10,23,0,0,0,0,0,0,0,0,0,31,0,0,34 | 0,27,0,38,0,27,0,0,0,0,0,0,0,0,0,0,0,0,0,47,23,0,12,0,11,0,47,0,31,28,45,0,0,0,18,0,0,0,0,0,0,0,0,0,49,0,0,13,0,0,0,0,0,0,0,25,0,0,17,0 | 0,41,0,0,0,27,0,37,14,0,0,0,0,0,0,43,0,0,45,0,25,0,0,0,0,16,0,23,0,0,0,0,0,0,0,12,0,0,0,0,0,49,0,0,0,0,0,0,25,0,43,34,0,0,14,0,30,50,33,0 | 0,0,22,0,0,0,0,0,0,0,0,31,0,46,0,20,0,0,0,29,38,0,50,0,31,0,0,0,0,0,0,0,48,0,0,0,0,11,25,0,0,28,0,0,0,0,22,0,44,16,0,46,0,0,0,0,0,0,0,0 | 0,0,0,0,0,0,14,0,0,0,0,0,22,0,0,0,0,13,34,0,0,0,39,0,0,0,0,23,18,0,36,0,14,19,17,0,0,0,0,0,0,0,0,0,0,0,0,0,31,0,0,0,36,0,17,0,38,0,0,0 | 46,0,0,0,29,0,0,0,19,44,0,0,38,0,0,0,20,0,0,0,0,0,0,0,43,0,0,49,0,0,0,25,0,0,31,0,0,0,0,0,0,24,0,0,0,0,0,45,0,16,0,0,17,0,0,0,0,0,0,0 | 0,0,0,0,0,34,0,0,0,10,0,0,0,0,28,0,0,0,0,0,0,0,0,12,0,20,49,0,0,0,0,43,0,0,0,0,17,0,0,0,0,0,0,0,18,0,0,0,0,0,20,0,47,0,0,0,14,0,0,0 | 23,0,0,0,21,0,0,32,0,12,0,0,0,0,0,0,0,0,0,0,12,35,28,0,0,0,16,0,0,12,0,45,0,0,45,0,47,21,0,0,0,15,0,27,0,0,0,0,45,38,0,0,0,0,0,0,21,0,46,0 | 40,11,0,0,45,0,0,0,0,48,0,0,0,0,0,0,0,0,0,0,0,0,0,43,0,0,0,18,0,0,0,0,0,44,0,0,0,0,0,0,0,0,0,0,15,0,0,0,42,0,0,0,0,16,0,18,0,0,0,0 | 0,0,0,0,22,0,0,0,49,0,0,41,0,0,0,37,0,0,33,0,0,0,0,0,0,0,0,0,0,0,0,0,38,30,0,0,35,0,0,0,30,0,0,0,0,0,0,0,0,40,26,0,0,0,0,0,0,0,0,0 | 0,0,39,0,0,0,0,0,0,0,0,0,0,0,0,0,0,0,0,0,0,0,13,13,0,0,0,47,0,0,0,0,0,0,0,0,13,0,50,0,0,0,0,0,0,37,0,0,0,0,0,0,0,0,15,0,19,0,17,50 | 14,31,26,0,0,0,49,0,0,0,0,37,0,0,0,0,0,23,32,0,49,0,17,0,0,0,37,30,42,0,31,0,21,0,0,0,0,40,0,19,25,0,0,15,0,50,0,0,0,14,0,44,0,0,0,0,16,0,0,0 | 0,0,0,0,0,0,0,48,0,0,28,0,0,0,0,48,0,0,34,0,0,0,26,17,0,42,0,48,27,11,0,48,28,48,41,42,43,50,14,17,0,0,0,0,0,0,0,0,0,0,0,28,0,50,24,0,0,24,0,0 |];
